15	4	2
3629	3629	3629	3629	
931	596	647	
165	60	61	
512	580	623	
229	770	804	
279	406	428	
57	518	518	
613	543	546	
127	133	133	
373	516	516	
986	577	630	
852	787	792	
523	574	583	
30	381	395	
784	222	229	
237	595	624	
